p edge 259 721
e 1 6
e 1 13
e 1 27
e 1 34
e 1 36
e 1 39
e 1 42
e 1 54
e 1 61
e 1 74
e 1 90
e 1 99
e 1 117
e 1 128
e 1 129
e 1 143
e 1 164
e 1 227
e 2 9
e 2 21
e 2 23
e 2 41
e 2 46
e 2 84
e 2 148
e 2 153
e 2 171
e 3 10
e 3 11
e 3 17
e 3 20
e 3 37
e 3 57
e 3 64
e 3 72
e 3 79
e 3 93
e 3 101
e 3 160
e 3 179
e 3 189
e 3 238
e 4 7
e 4 14
e 4 16
e 4 19
e 4 25
e 4 38
e 4 74
e 4 93
e 4 136
e 4 167
e 4 211
e 4 224
e 5 15
e 5 24
e 5 25
e 5 27
e 5 67
e 5 98
e 5 143
e 5 147
e 5 169
e 5 170
e 5 174
e 5 186
e 5 216
e 6 54
e 6 57
e 6 95
e 6 103
e 6 123
e 6 125
e 6 141
e 6 173
e 6 190
e 7 25
e 7 42
e 7 79
e 7 80
e 7 178
e 7 209
e 8 12
e 8 17
e 8 35
e 8 40
e 8 44
e 8 60
e 8 72
e 8 109
e 8 119
e 9 13
e 9 46
e 9 63
e 9 73
e 9 90
e 10 11
e 10 27
e 10 64
e 10 67
e 10 105
e 10 112
e 10 161
e 10 189
e 10 197
e 11 18
e 11 20
e 11 23
e 11 49
e 11 51
e 11 55
e 11 56
e 11 63
e 11 64
e 11 70
e 11 77
e 11 94
e 11 110
e 11 111
e 11 126
e 11 160
e 11 189
e 11 237
e 12 24
e 12 26
e 12 30
e 12 44
e 12 45
e 12 58
e 12 65
e 12 88
e 12 107
e 13 47
e 13 61
e 13 73
e 13 85
e 13 129
e 13 244
e 14 22
e 14 28
e 14 31
e 14 58
e 14 62
e 14 64
e 14 116
e 14 250
e 14 251
e 14 252
e 15 35
e 15 50
e 15 67
e 15 74
e 15 81
e 15 165
e 15 166
e 15 174
e 15 186
e 15 204
e 15 205
e 15 206
e 15 235
e 15 253
e 16 53
e 16 77
e 16 78
e 16 86
e 16 110
e 16 111
e 16 112
e 16 118
e 16 213
e 16 224
e 17 23
e 17 45
e 17 46
e 17 53
e 17 60
e 17 72
e 17 79
e 17 93
e 17 101
e 17 156
e 18 30
e 18 39
e 18 52
e 18 65
e 18 97
e 18 110
e 18 111
e 18 117
e 18 220
e 19 25
e 19 34
e 19 48
e 19 180
e 19 187
e 20 29
e 20 30
e 20 54
e 20 65
e 20 69
e 20 92
e 20 100
e 20 102
e 20 121
e 20 123
e 20 130
e 20 131
e 20 160
e 20 230
e 20 231
e 21 28
e 21 45
e 21 58
e 21 84
e 21 85
e 21 153
e 21 158
e 21 168
e 22 35
e 22 54
e 22 116
e 22 140
e 22 145
e 22 196
e 23 46
e 23 51
e 23 56
e 23 63
e 23 70
e 23 77
e 23 90
e 23 94
e 23 146
e 24 26
e 25 34
e 25 46
e 25 74
e 25 93
e 25 180
e 26 30
e 26 56
e 26 61
e 26 75
e 26 104
e 26 107
e 26 146
e 27 28
e 27 43
e 27 59
e 27 67
e 27 113
e 27 128
e 27 142
e 27 143
e 27 147
e 27 198
e 27 201
e 27 216
e 28 43
e 28 58
e 28 59
e 28 64
e 28 67
e 28 85
e 29 30
e 29 42
e 29 61
e 29 130
e 29 131
e 29 180
e 29 219
e 30 44
e 30 55
e 30 97
e 30 107
e 30 130
e 30 131
e 30 219
e 30 220
e 31 38
e 31 62
e 31 76
e 31 118
e 31 122
e 31 136
e 31 170
e 31 250
e 31 251
e 31 252
e 32 52
e 32 71
e 32 91
e 32 97
e 32 132
e 33 48
e 33 87
e 33 149
e 33 249
e 34 36
e 34 41
e 34 48
e 34 62
e 34 98
e 34 99
e 34 129
e 34 180
e 35 45
e 35 53
e 35 74
e 35 109
e 35 114
e 35 145
e 36 48
e 36 76
e 37 52
e 37 57
e 37 72
e 37 95
e 37 122
e 37 179
e 38 71
e 38 88
e 38 97
e 38 105
e 38 108
e 38 120
e 38 136
e 38 200
e 38 208
e 39 44
e 39 71
e 39 76
e 39 121
e 39 203
e 40 57
e 40 78
e 40 82
e 40 122
e 40 140
e 40 196
e 40 223
e 41 83
e 41 99
e 41 119
e 41 144
e 41 149
e 41 171
e 42 61
e 42 74
e 42 90
e 42 239
e 43 59
e 43 64
e 43 67
e 43 132
e 43 194
e 43 195
e 44 72
e 44 104
e 44 121
e 44 203
e 44 214
e 45 53
e 45 58
e 45 65
e 45 94
e 46 63
e 47 61
e 47 70
e 47 73
e 47 94
e 47 177
e 48 76
e 48 149
e 49 55
e 49 65
e 49 69
e 49 92
e 49 93
e 49 96
e 49 101
e 49 121
e 49 232
e 49 237
e 50 77
e 50 150
e 51 54
e 51 56
e 51 63
e 51 70
e 51 77
e 51 93
e 51 94
e 51 215
e 52 57
e 52 71
e 52 78
e 52 95
e 52 97
e 52 122
e 52 134
e 53 60
e 53 63
e 53 80
e 53 86
e 53 114
e 53 116
e 53 156
e 54 65
e 54 69
e 54 121
e 54 140
e 54 160
e 54 196
e 55 86
e 55 92
e 55 96
e 55 106
e 55 237
e 56 63
e 56 70
e 56 75
e 56 77
e 56 94
e 56 126
e 56 151
e 56 222
e 57 95
e 57 122
e 58 85
e 58 202
e 59 64
e 59 67
e 59 90
e 59 194
e 59 195
e 59 247
e 60 63
e 60 72
e 60 80
e 60 114
e 60 116
e 61 74
e 61 90
e 61 146
e 62 88
e 62 98
e 62 99
e 62 129
e 62 250
e 62 251
e 62 252
e 63 70
e 63 77
e 63 80
e 63 94
e 63 114
e 63 116
e 63 126
e 63 178
e 63 259
e 64 189
e 65 69
e 65 117
e 65 121
e 65 160
e 65 232
e 66 86
e 66 115
e 66 117
e 66 124
e 66 163
e 66 177
e 66 218
e 67 142
e 67 186
e 67 228
e 68 72
e 68 100
e 68 102
e 68 103
e 68 123
e 68 127
e 68 181
e 68 210
e 68 217
e 68 221
e 69 96
e 69 121
e 69 138
e 69 160
e 69 163
e 69 164
e 69 232
e 70 77
e 70 94
e 70 126
e 70 177
e 70 184
e 71 76
e 71 97
e 71 108
e 71 208
e 72 179
e 72 214
e 74 90
e 74 93
e 75 87
e 75 154
e 75 192
e 75 193
e 76 122
e 76 170
e 77 94
e 77 110
e 77 111
e 77 150
e 77 215
e 78 82
e 78 83
e 78 118
e 78 127
e 78 134
e 79 105
e 79 112
e 79 242
e 80 114
e 80 116
e 80 145
e 80 175
e 81 87
e 81 151
e 81 192
e 81 193
e 81 204
e 81 205
e 81 206
e 82 83
e 82 127
e 83 106
e 83 119
e 83 127
e 83 144
e 83 149
e 84 87
e 84 89
e 84 113
e 84 159
e 84 182
e 84 183
e 85 153
e 86 106
e 86 124
e 86 177
e 87 89
e 87 182
e 87 183
e 87 192
e 87 193
e 88 105
e 88 200
e 89 113
e 89 182
e 89 183
e 90 146
e 91 132
e 91 135
e 91 171
e 91 258
e 92 96
e 93 101
e 94 126
e 94 177
e 95 106
e 95 122
e 95 199
e 95 212
e 96 138
e 96 163
e 96 248
e 97 108
e 97 208
e 97 220
e 98 129
e 98 169
e 99 129
e 100 102
e 100 103
e 100 123
e 100 127
e 100 181
e 100 217
e 100 230
e 100 231
e 101 191
e 102 103
e 102 123
e 102 190
e 102 217
e 102 230
e 102 231
e 103 123
e 103 190
e 103 217
e 105 112
e 105 200
e 105 242
e 106 212
e 107 158
e 108 120
e 108 134
e 108 162
e 108 208
e 109 115
e 109 159
e 110 111
e 112 213
e 112 242
e 113 154
e 113 198
e 113 201
e 114 116
e 115 163
e 116 172
e 116 236
e 117 164
e 119 144
e 119 149
e 121 160
e 121 203
e 121 232
e 122 170
e 123 127
e 123 173
e 123 181
e 123 190
e 123 230
e 123 231
e 124 175
e 124 177
e 124 243
e 126 184
e 127 181
e 127 221
e 128 143
e 128 147
e 128 227
e 130 131
e 130 219
e 131 219
e 133 229
e 134 162
e 135 155
e 136 211
e 136 256
e 137 139
e 137 148
e 137 176
e 137 233
e 137 254
e 137 255
e 138 164
e 139 148
e 139 176
e 139 233
e 140 196
e 142 186
e 142 228
e 142 240
e 142 241
e 143 147
e 143 216
e 143 227
e 144 149
e 144 165
e 144 166
e 147 216
e 148 153
e 150 157
e 152 176
e 152 234
e 156 185
e 158 168
e 161 197
e 161 257
e 162 207
e 165 166
e 165 235
e 166 235
e 167 172
e 172 236
e 173 190
e 174 253
e 176 233
e 178 209
e 178 259
e 181 221
e 182 183
e 182 225
e 183 225
e 184 188
e 184 226
e 186 240
e 186 241
e 188 226
e 192 193
e 194 195
e 194 247
e 195 247
e 198 201
e 204 205
e 204 206
e 205 206
e 230 231
e 240 241
e 245 246
e 250 251
e 250 252
e 251 252
e 254 255
